22      4       
12      12      10      12      
0       0       0       0       0       4       2       3       4       5       
5       2       0       0       0       1       21      
6       0       6       0       0       1       11      
3       0       0       0       4       1       6       
8       0       0       0       9       2       8       20      
8       0       8       0       0       2       7       16      
5       8       0       0       0       2       8       20      
6       0       9       0       0       3       9       19      21      
2       0       9       0       0       1       10      
8       10      0       0       0       1       15      
7       0       0       0       2       2       12      15      
7       6       0       0       0       2       13      21      
3       2       0       0       0       1       14      
4       0       0       0       10      1       16      
10      0       0       1       0       1       17      
2       0       0       0       2       2       17      19      
2       0       0       10      0       1       18      
10      0       0       0       1       1       22      
4       0       2       0       0       1       22      
10      0       0       0       10      1       22      
6       0       0       0       3       1       22      
0       0       0       0       0       0       
